p cnf 80 42
e 80 0
e 40 0
e 79 0
e 39 0
e 78 0
e 38 0
e 77 0
e 37 0
e 76 0
e 36 0
e 75 0
e 35 0
e 74 0
e 34 0
e 73 0
e 33 0
e 72 0
e 32 0
e 71 0
e 31 0
e 70 0
e 30 0
e 69 0
e 29 0
e 68 0
e 28 0
e 67 0
a 27 0
a 66 0
a 26 0
a 65 0
a 25 0
a 64 0
a 24 0
a 63 0
a 23 0
a 62 0
a 22 0
a 61 0
a 21 0
a 60 0
a 20 0
a 59 0
a 19 0
a 58 0
a 18 0
a 57 0
a 17 0
a 56 0
a 16 0
a 55 0
a 15 0
a 54 0
a 14 0
e 53 0
e 13 0
e 52 0
e 12 0
e 51 0
e 11 0
e 50 0
e 10 0
e 49 0
e 9 0
e 48 0
e 8 0
e 47 0
e 7 0
e 46 0
e 6 0
e 45 0
e 5 0
e 44 0
e 4 0
e 43 0
e 3 0
e 42 0
e 2 0
e 41 0
e 1 0
-40 0
40 79 -39 -78 -38 0
39 78 -38 -77 -37 0
38 77 -37 -76 -36 0
37 76 -36 -75 -35 0
36 75 -35 -74 -34 0
35 74 -34 -73 -33 0
34 73 -33 -72 -32 0
33 72 -32 -71 -31 0
32 71 -31 -70 -30 0
31 70 -30 -69 -29 0
30 69 -29 -68 -28 0
29 68 -28 -67 -27 0
28 67 -27 -66 -26 0
27 66 -26 -65 -25 0
26 65 -25 -64 -24 0
25 64 -24 -63 -23 0
24 63 -23 -62 -22 0
23 62 -22 -61 -21 0
22 61 -21 -60 -20 0
21 60 -20 -59 -19 0
20 59 -19 -58 -18 0
19 58 -18 -57 -17 0
18 57 -17 -56 -16 0
17 56 -16 -55 -15 0
16 55 -15 -54 -14 0
15 54 -14 -53 -13 0
14 53 -13 -52 -12 0
13 52 -12 -51 -11 0
12 51 -11 -50 -10 0
11 50 -10 -49 -9 0
10 49 -9 -48 -8 0
9 48 -8 -47 -7 0
8 47 -7 -46 -6 0
7 46 -6 -45 -5 0
6 45 -5 -44 -4 0
5 44 -4 -43 -3 0
4 43 -3 -42 -2 0
3 42 -2 -41 -1 0
2 1 0
2 -1 0
-2 1 0
